
Gurobi 9.1.2 (win64, Java) logging started Sat Nov  6 21:17:00 2021

Academic license - for non-commercial use only - expires 2022-10-30
Gurobi Optimizer version 9.1.2 build v9.1.2rc0 (win64)
Thread count: 6 physical cores, 12 logical processors, using up to 12 threads
Optimize a model with 60 rows, 800 columns and 1600 nonzeros
Model fingerprint: 0x73c0e249
Variable types: 0 continuous, 800 integer (800 binary)
Coefficient statistics:
  Matrix range     [1e+00, 9e+02]
  Objective range  [5e+02, 1e+03]
  Bounds range     [1e+00, 1e+00]
  RHS range        [1e+00, 1e+03]
Found heuristic solution: objective 14965.000000
Presolve removed 0 rows and 395 columns
Presolve time: 0.01s
Presolved: 60 rows, 405 columns, 810 nonzeros
Variable types: 0 continuous, 405 integer (405 binary)
Presolved: 60 rows, 405 columns, 810 nonzeros


Root relaxation: objective 2.111983e+04, 231 iterations, 0.00 seconds

    Nodes    |    Current Node    |     Objective Bounds      |     Work
 Expl Unexpl |  Obj  Depth IntInf | Incumbent    BestBd   Gap | It/Node Time

     0     0 21119.8280    0   20 14965.0000 21119.8280  41.1%     -    0s
H    0     0                    19501.000000 21119.8280  8.30%     -    0s
H    0     0                    19562.000000 21119.8280  7.96%     -    0s
H    0     0                    19615.000000 21119.8280  7.67%     -    0s
H    0     0                    20005.000000 21113.6923  5.54%     -    0s
H    0     0                    20430.000000 21113.6923  3.35%     -    0s
     0     0 20538.5560    0   12 20430.0000 20538.5560  0.53%     -    0s
     0     0 20438.6030    0   14 20430.0000 20438.6030  0.04%     -    0s
     0     0     cutoff    0      20430.0000 20430.0000  0.00%     -    0s

Explored 1 nodes (508 simplex iterations) in 0.46 seconds
Thread count was 12 (of 12 available processors)

Solution count 7: 20430 20430 20005 ... 14965

Optimal solution found (tolerance 1.00e-04)
Best objective 2.043000000000e+04, best bound 2.043000000000e+04, gap 0.0000%
